experiments/sat_smt/run/sat-r/results/rebecca.res
solved=true
solvingTime=1.6324503421783447265625
nActions=6