experiments/sat_smt/run/sat-r/results/rebecca.out
Timesteps: 1
s UNSATISFIABLE
real 0.10
user 0.01
sys 0.00
Timesteps: 2
s UNSATISFIABLE
real 0.21
user 0.02
sys 0.00
Timesteps: 3
s UNSATISFIABLE
real 0.22
user 0.05
sys 0.00
Timesteps: 4
s UNSATISFIABLE
real 0.27
user 0.11
sys 0.00
Timesteps: 5
s UNSATISFIABLE
real 0.26
user 0.18
sys 0.00
Timesteps: 6
s SATISFIABLE
real 0.36
user 0.27
sys 0.01
